certificates/rado_a15_c202_N62.cnf
c Rad2 upper bound instance: x1 + 15*x2 - x3 = 202, interval [1,62]
p cnf 62 510
1 9 14 0
-1 -9 -14 0
1 15 24 0
-1 -15 -24 0
1 16 39 0
-1 -16 -39 0
1 17 54 0
-1 -17 -54 0
2 10 14 0
-2 -10 -14 0
2 15 25 0
-2 -15 -25 0
2 16 40 0
-2 -16 -40 0
2 17 55 0
-2 -17 -55 0
3 11 14 0
-3 -11 -14 0
3 15 26 0
-3 -15 -26 0
3 16 41 0
-3 -16 -41 0
3 17 56 0
-3 -17 -56 0
4 12 14 0
-4 -12 -14 0
4 15 27 0
-4 -15 -27 0
4 16 42 0
-4 -16 -42 0
4 17 57 0
-4 -17 -57 0
5 13 14 0
-5 -13 -14 0
5 15 28 0
-5 -15 -28 0
5 16 43 0
-5 -16 -43 0
5 17 58 0
-5 -17 -58 0
6 14 0
-6 -14 0
6 15 29 0
-6 -15 -29 0
6 16 44 0
-6 -16 -44 0
6 17 59 0
-6 -17 -59 0
7 14 15 0
-7 -14 -15 0
7 15 30 0
-7 -15 -30 0
7 16 45 0
-7 -16 -45 0
7 17 60 0
-7 -17 -60 0
1 8 13 0
-1 -8 -13 0
8 14 16 0
-8 -14 -16 0
8 15 31 0
-8 -15 -31 0
8 16 46 0
-8 -16 -46 0
8 17 61 0
-8 -17 -61 0
2 9 13 0
-2 -9 -13 0
9 14 17 0
-9 -14 -17 0
9 15 32 0
-9 -15 -32 0
9 16 47 0
-9 -16 -47 0
9 17 62 0
-9 -17 -62 0
3 10 13 0
-3 -10 -13 0
10 14 18 0
-10 -14 -18 0
10 15 33 0
-10 -15 -33 0
10 16 48 0
-10 -16 -48 0
4 11 13 0
-4 -11 -13 0
11 14 19 0
-11 -14 -19 0
11 15 34 0
-11 -15 -34 0
11 16 49 0
-11 -16 -49 0
5 12 13 0
-5 -12 -13 0
12 14 20 0
-12 -14 -20 0
12 15 35 0
-12 -15 -35 0
12 16 50 0
-12 -16 -50 0
6 13 0
-6 -13 0
13 14 21 0
-13 -14 -21 0
13 15 36 0
-13 -15 -36 0
13 16 51 0
-13 -16 -51 0
7 13 14 0
-7 -13 -14 0
14 22 0
-14 -22 0
14 15 37 0
-14 -15 -37 0
14 16 52 0
-14 -16 -52 0
8 13 15 0
-8 -13 -15 0
14 15 23 0
-14 -15 -23 0
15 38 0
-15 -38 0
15 16 53 0
-15 -16 -53 0
9 13 16 0
-9 -13 -16 0
14 16 24 0
-14 -16 -24 0
15 16 39 0
-15 -16 -39 0
16 54 0
-16 -54 0
10 13 17 0
-10 -13 -17 0
14 17 25 0
-14 -17 -25 0
15 17 40 0
-15 -17 -40 0
16 17 55 0
-16 -17 -55 0
11 13 18 0
-11 -13 -18 0
14 18 26 0
-14 -18 -26 0
15 18 41 0
-15 -18 -41 0
16 18 56 0
-16 -18 -56 0
12 13 19 0
-12 -13 -19 0
14 19 27 0
-14 -19 -27 0
15 19 42 0
-15 -19 -42 0
16 19 57 0
-16 -19 -57 0
13 20 0
-13 -20 0
14 20 28 0
-14 -20 -28 0
15 20 43 0
-15 -20 -43 0
16 20 58 0
-16 -20 -58 0
14 21 29 0
-14 -21 -29 0
15 21 44 0
-15 -21 -44 0
16 21 59 0
-16 -21 -59 0
13 15 22 0
-13 -15 -22 0
14 22 30 0
-14 -22 -30 0
15 22 45 0
-15 -22 -45 0
16 22 60 0
-16 -22 -60 0
1 12 23 0
-1 -12 -23 0
13 16 23 0
-13 -16 -23 0
14 23 31 0
-14 -23 -31 0
15 23 46 0
-15 -23 -46 0
16 23 61 0
-16 -23 -61 0
2 12 24 0
-2 -12 -24 0
13 17 24 0
-13 -17 -24 0
14 24 32 0
-14 -24 -32 0
15 24 47 0
-15 -24 -47 0
16 24 62 0
-16 -24 -62 0
3 12 25 0
-3 -12 -25 0
13 18 25 0
-13 -18 -25 0
14 25 33 0
-14 -25 -33 0
15 25 48 0
-15 -25 -48 0
4 12 26 0
-4 -12 -26 0
13 19 26 0
-13 -19 -26 0
14 26 34 0
-14 -26 -34 0
15 26 49 0
-15 -26 -49 0
5 12 27 0
-5 -12 -27 0
13 20 27 0
-13 -20 -27 0
14 27 35 0
-14 -27 -35 0
15 27 50 0
-15 -27 -50 0
6 12 28 0
-6 -12 -28 0
13 21 28 0
-13 -21 -28 0
14 28 36 0
-14 -28 -36 0
15 28 51 0
-15 -28 -51 0
7 12 29 0
-7 -12 -29 0
13 22 29 0
-13 -22 -29 0
14 29 37 0
-14 -29 -37 0
15 29 52 0
-15 -29 -52 0
8 12 30 0
-8 -12 -30 0
13 23 30 0
-13 -23 -30 0
14 30 38 0
-14 -30 -38 0
15 30 53 0
-15 -30 -53 0
9 12 31 0
-9 -12 -31 0
13 24 31 0
-13 -24 -31 0
14 31 39 0
-14 -31 -39 0
15 31 54 0
-15 -31 -54 0
10 12 32 0
-10 -12 -32 0
13 25 32 0
-13 -25 -32 0
14 32 40 0
-14 -32 -40 0
15 32 55 0
-15 -32 -55 0
11 12 33 0
-11 -12 -33 0
13 26 33 0
-13 -26 -33 0
14 33 41 0
-14 -33 -41 0
15 33 56 0
-15 -33 -56 0
12 34 0
-12 -34 0
13 27 34 0
-13 -27 -34 0
14 34 42 0
-14 -34 -42 0
15 34 57 0
-15 -34 -57 0
12 13 35 0
-12 -13 -35 0
13 28 35 0
-13 -28 -35 0
14 35 43 0
-14 -35 -43 0
15 35 58 0
-15 -35 -58 0
12 14 36 0
-12 -14 -36 0
13 29 36 0
-13 -29 -36 0
14 36 44 0
-14 -36 -44 0
15 36 59 0
-15 -36 -59 0
12 15 37 0
-12 -15 -37 0
13 30 37 0
-13 -30 -37 0
14 37 45 0
-14 -37 -45 0
15 37 60 0
-15 -37 -60 0
1 11 38 0
-1 -11 -38 0
12 16 38 0
-12 -16 -38 0
13 31 38 0
-13 -31 -38 0
14 38 46 0
-14 -38 -46 0
15 38 61 0
-15 -38 -61 0
2 11 39 0
-2 -11 -39 0
12 17 39 0
-12 -17 -39 0
13 32 39 0
-13 -32 -39 0
14 39 47 0
-14 -39 -47 0
15 39 62 0
-15 -39 -62 0
3 11 40 0
-3 -11 -40 0
12 18 40 0
-12 -18 -40 0
13 33 40 0
-13 -33 -40 0
14 40 48 0
-14 -40 -48 0
4 11 41 0
-4 -11 -41 0
12 19 41 0
-12 -19 -41 0
13 34 41 0
-13 -34 -41 0
14 41 49 0
-14 -41 -49 0
5 11 42 0
-5 -11 -42 0
12 20 42 0
-12 -20 -42 0
13 35 42 0
-13 -35 -42 0
14 42 50 0
-14 -42 -50 0
6 11 43 0
-6 -11 -43 0
12 21 43 0
-12 -21 -43 0
13 36 43 0
-13 -36 -43 0
14 43 51 0
-14 -43 -51 0
7 11 44 0
-7 -11 -44 0
12 22 44 0
-12 -22 -44 0
13 37 44 0
-13 -37 -44 0
14 44 52 0
-14 -44 -52 0
8 11 45 0
-8 -11 -45 0
12 23 45 0
-12 -23 -45 0
13 38 45 0
-13 -38 -45 0
14 45 53 0
-14 -45 -53 0
9 11 46 0
-9 -11 -46 0
12 24 46 0
-12 -24 -46 0
13 39 46 0
-13 -39 -46 0
14 46 54 0
-14 -46 -54 0
10 11 47 0
-10 -11 -47 0
12 25 47 0
-12 -25 -47 0
13 40 47 0
-13 -40 -47 0
14 47 55 0
-14 -47 -55 0
11 48 0
-11 -48 0
12 26 48 0
-12 -26 -48 0
13 41 48 0
-13 -41 -48 0
14 48 56 0
-14 -48 -56 0
11 12 49 0
-11 -12 -49 0
12 27 49 0
-12 -27 -49 0
13 42 49 0
-13 -42 -49 0
14 49 57 0
-14 -49 -57 0
11 13 50 0
-11 -13 -50 0
12 28 50 0
-12 -28 -50 0
13 43 50 0
-13 -43 -50 0
14 50 58 0
-14 -50 -58 0
11 14 51 0
-11 -14 -51 0
12 29 51 0
-12 -29 -51 0
13 44 51 0
-13 -44 -51 0
14 51 59 0
-14 -51 -59 0
11 15 52 0
-11 -15 -52 0
12 30 52 0
-12 -30 -52 0
13 45 52 0
-13 -45 -52 0
14 52 60 0
-14 -52 -60 0
1 10 53 0
-1 -10 -53 0
11 16 53 0
-11 -16 -53 0
12 31 53 0
-12 -31 -53 0
13 46 53 0
-13 -46 -53 0
14 53 61 0
-14 -53 -61 0
2 10 54 0
-2 -10 -54 0
11 17 54 0
-11 -17 -54 0
12 32 54 0
-12 -32 -54 0
13 47 54 0
-13 -47 -54 0
14 54 62 0
-14 -54 -62 0
3 10 55 0
-3 -10 -55 0
11 18 55 0
-11 -18 -55 0
12 33 55 0
-12 -33 -55 0
13 48 55 0
-13 -48 -55 0
4 10 56 0
-4 -10 -56 0
11 19 56 0
-11 -19 -56 0
12 34 56 0
-12 -34 -56 0
13 49 56 0
-13 -49 -56 0
5 10 57 0
-5 -10 -57 0
11 20 57 0
-11 -20 -57 0
12 35 57 0
-12 -35 -57 0
13 50 57 0
-13 -50 -57 0
6 10 58 0
-6 -10 -58 0
11 21 58 0
-11 -21 -58 0
12 36 58 0
-12 -36 -58 0
13 51 58 0
-13 -51 -58 0
7 10 59 0
-7 -10 -59 0
11 22 59 0
-11 -22 -59 0
12 37 59 0
-12 -37 -59 0
13 52 59 0
-13 -52 -59 0
8 10 60 0
-8 -10 -60 0
11 23 60 0
-11 -23 -60 0
12 38 60 0
-12 -38 -60 0
13 53 60 0
-13 -53 -60 0
9 10 61 0
-9 -10 -61 0
11 24 61 0
-11 -24 -61 0
12 39 61 0
-12 -39 -61 0
13 54 61 0
-13 -54 -61 0
10 62 0
-10 -62 0
11 25 62 0
-11 -25 -62 0
12 40 62 0
-12 -40 -62 0
13 55 62 0
-13 -55 -62 0
