certificates/rado_a15_c202_N62.drat
13 -59 10 0
-13 -61 -62 0
-61 -62 0
d -13 -61 -62 0
-62 0
10 0
17 7 0
-17 -59 0
d -17 -6 -59 0
-59 0
13 0
-6 0
-20 0
-3 0
-17 0
14 0
0
